Route #1: 68 90 84 66
Route #2: 75 93
Route #3: 24 95 73 53 33 32
Route #4: 8 17
Route #5: 7 2 45 43 29 36 72 57
Route #6: 31 46 35
Route #7: 63 77 3
Route #8: 23 61 100
Route #9: 39 10 18
Route #10: 4 13 74
Route #11: 82 60 59
Route #12: 44 67 88 40
Route #13: 30 85 11 79
Route #14: 21 56 94 80
Route #15: 86 9 92
Route #16: 69 16 55 76
Route #17: 52 91 50
Route #18: 15 22 41 20
Route #19: 19 97 27
Route #20: 28 42 78 65 25
Route #21: 5 12 58
Route #22: 54 70 1
Route #23: 89 98 99 62 71
Route #24: 38 47 26 48 96 64 34
Route #25: 81 51 83
Route #26: 14 49 6 37 87
Cost 27591.0000
Time 16.0004